17	4
7	15	13	13	
0	0	0	0	0	3	2	3	4	
3	0	0	0	10	3	8	13	14	
7	0	0	5	0	3	5	6	9	
5	0	0	0	6	3	14	17	17	
2	0	10	0	0	3	10	11	12	
75	0	0	8	0	3	7	17	17	
75	0	0	0	10	2	10	17	
200	0	0	0	1	3	9	15	16	
75	0	0	2	0	3	17	17	17	
50	0	0	0	6	3	13	14	17	
50	4	0	0	0	2	16	17	
25	0	0	0	9	3	15	16	17	
4	0	6	0	0	3	15	17	17	
5	0	3	0	0	3	17	17	17	
7	0	0	0	7	2	17	17	
6	0	0	0	3	2	17	17	
0	0	0	0	0	0	
